instances/knapsack20.dat
param n = 20;
param costBound = 4875;
param value := 
[0] 654
[1] 101
[2] 219
[3] 996
[4] 287
[5] 467
[6] 1097
[7] 790
[8] 122
[9] 713
[10] 447
[11] 974
[12] 622
[13] 222
[14] 830
[15] 586
[16] 805
[17] 923
[18] 332
[19] 563
;

param cost := 
[0] 554
[1] 1
[2] 119
[3] 896
[4] 187
[5] 367
[6] 997
[7] 690
[8] 22
[9] 613
[10] 347
[11] 874
[12] 522
[13] 122
[14] 730
[15] 486
[16] 705
[17] 823
[18] 232
[19] 463
;
