outputs/knapsack20.output
CPLEX 12.9.0.0: optimal integer solution; objective 6258
3 MIP simplex iterations
0 branch-and-bound nodes
Select [*] :=
 0  1
 1  1
 2  1
 3  0
 4  1
 5  1
 6  0
 7  0
 8  1
 9  1
10  1
11  0
12  1
13  1
14  0
15  1
16  0
17  1
18  1
19  1
;

